TYPE : Vertex Cover
DIMENSION: 37
EDGE_DATA_SECTION:
0 3
0 5
0 8
0 11
0 17
0 29
0 32
0 33
1 3
1 4
1 9
1 15
1 16
1 17
1 22
1 25
1 27
1 29
1 35
1 36
2 8
2 13
2 15
2 17
2 18
2 20
2 22
2 29
2 33
2 34
3 5
3 8
3 10
3 11
3 12
3 13
3 23
3 26
3 32
3 34
3 36
4 9
4 13
4 15
4 16
4 19
4 23
4 25
4 36
5 6
5 9
5 14
5 22
5 24
5 25
5 28
5 30
5 31
5 36
6 11
6 12
6 13
6 16
6 18
6 20
6 23
6 29
6 30
7 10
7 13
7 16
7 17
7 20
7 21
7 22
7 28
7 30
7 32
7 34
8 9
8 16
8 17
8 19
8 25
9 17
9 22
9 23
9 25
9 27
9 30
9 33
9 34
9 35
10 11
10 12
10 15
10 17
10 20
10 23
10 26
10 31
10 32
11 12
11 16
11 18
11 19
11 29
11 33
12 13
12 14
12 24
12 28
12 29
12 33
12 36
13 15
13 17
13 24
13 32
14 15
14 29
14 34
14 35
15 16
15 19
15 24
15 25
15 30
15 32
16 17
16 22
16 23
16 26
16 28
16 31
16 33
16 34
17 18
17 20
17 21
17 23
17 24
17 28
18 22
18 23
18 27
18 36
19 21
19 22
19 27
19 28
19 31
19 32
19 33
19 34
20 21
20 22
20 26
20 27
20 32
21 22
21 23
21 31
22 23
22 32
22 33
22 35
22 36
23 26
23 32
23 34
23 36
24 26
24 27
24 31
24 34
25 30
25 36
27 30
27 32
27 33
27 34
28 33
29 30
31 33
31 36
32 33
32 34
33 36
34 35
-1
VERTEX_DEGREE:
8.0 12.0 10.0 13.0 9.0 12.0 10.0 11.0 8.0 13.0 11.0 10.0 11.0 10.0 6.0 12.0 15.0 15.0 8.0 12.0 10.0 7.0 15.0 14.0 9.0 8.0 6.0 10.0 7.0 8.0 8.0 8.0 13.0 13.0 12.0 5.0 11.0
VERTEX_COVER:
0 2 3 4 5 6 7 9 10 12 15 16 17 18 19 21 22 24 25 26 27 29 32 33 34 35 36
EOF
